NAME : local_3
TYPE : ATSP
DIMENSION : 22
EDGE_WEIGHT_TYPE : EXPLICIT
EDGE_WEIGHT_FORMAT : FULL_MATRIX
EDGE_WEIGHT_SECTION
0 10000000 10000000 10000000 784 629 618 10000000 10000000 475 537 10000000 10000000 649 10000000 181 10000000 725 10000000 150 10000000 407 
0 0 10000000 10000000 711 10000000 10000000 993 770 10000000 10000000 690 180 674 10000000 10000000 726 10000000 10000000 10000000 10000000 10000000 
0 10000000 0 202 10000000 10000000 10000000 10000000 10000000 10000000 1075 846 10000000 10000000 510 10000000 980 10000000 942 10000000 537 10000000 
0 10000000 202 0 10000000 930 10000000 10000000 10000000 919 863 982 10000000 10000000 320 10000000 10000000 10000000 986 10000000 733 912 
0 711 10000000 10000000 0 10000000 455 10000000 928 10000000 10000000 10000000 717 555 10000000 933 10000000 926 10000000 926 10000000 10000000 
0 10000000 10000000 930 10000000 0 730 10000000 10000000 360 242 10000000 10000000 10000000 791 686 10000000 486 889 559 10000000 402 
0 10000000 10000000 10000000 455 730 0 10000000 10000000 857 904 10000000 1004 772 10000000 767 985 473 947 717 10000000 787 
0 993 10000000 10000000 10000000 10000000 10000000 0 804 10000000 10000000 548 841 983 10000000 10000000 10000000 10000000 10000000 10000000 10000000 10000000 
0 770 10000000 10000000 928 10000000 10000000 804 0 10000000 10000000 976 645 435 10000000 10000000 10000000 10000000 10000000 10000000 10000000 10000000 
0 10000000 10000000 919 10000000 360 857 10000000 10000000 0 129 10000000 10000000 995 697 490 10000000 764 10000000 367 10000000 120 
0 10000000 1049 863 10000000 242 852 10000000 10000000 129 0 10000000 10000000 1053 666 574 10000000 684 10000000 444 10000000 193 
0 690 846 982 10000000 10000000 10000000 548 976 10000000 10000000 0 589 978 10000000 10000000 767 10000000 10000000 10000000 656 10000000 
0 180 10000000 10000000 717 10000000 1049 841 645 10000000 10000000 589 0 554 10000000 10000000 759 10000000 10000000 10000000 10000000 10000000 
0 674 10000000 10000000 555 10000000 772 983 435 1022 1019 978 554 0 10000000 771 10000000 10000000 10000000 771 10000000 902 
0 10000000 510 320 10000000 791 10000000 10000000 10000000 697 666 10000000 10000000 10000000 0 10000000 10000000 10000000 10000000 10000000 10000000 715 
0 10000000 10000000 10000000 933 686 767 10000000 10000000 490 574 10000000 10000000 817 10000000 0 10000000 812 10000000 159 10000000 453 
0 726 999 10000000 10000000 10000000 985 10000000 10000000 10000000 10000000 767 780 10000000 10000000 10000000 0 10000000 732 10000000 610 10000000 
0 10000000 10000000 10000000 926 486 473 10000000 10000000 764 684 10000000 10000000 10000000 10000000 812 10000000 0 858 732 10000000 761 
0 10000000 942 986 10000000 889 947 10000000 10000000 10000000 10000000 10000000 10000000 10000000 10000000 10000000 732 858 0 10000000 892 10000000 
0 10000000 10000000 10000000 926 559 717 10000000 10000000 367 444 10000000 10000000 771 10000000 159 10000000 732 10000000 0 10000000 329 
0 10000000 537 733 10000000 10000000 10000000 10000000 10000000 10000000 10000000 656 10000000 10000000 10000000 10000000 610 10000000 892 10000000 0 10000000 
0 10000000 10000000 10000000 10000000 10000000 10000000 10000000 10000000 10000000 10000000 10000000 10000000 10000000 10000000 10000000 10000000 10000000 10000000 10000000 10000000 0 
EOF